c ren 1 -> 1
c ren 2 -> 2
c ren 3 -> 3
c ren 4 -> 4
c ren 5 -> 5
c ren 6 -> 6
c ren 7 -> 7
c ren 8 -> 8
c ren 9 -> 9
c ren 10 -> 10
c ren 11 -> 11
c ren 12 -> 12
c ren 13 -> 13
c ren 14 -> 14
c ren 15 -> 15
c ren 16 -> 16
c ren 17 -> 17
c ren 18 -> 18
c ren 19 -> 19
c ren 20 -> 20
c ren 21 -> 21
c ren 22 -> 22
c ren 23 -> 23
c ren 24 -> 24
c ren 25 -> 25
c ren 26 -> 26
c ren 27 -> 27
p cnf 27 47
a 1 2 3 4 5 6 7 8 9 10 11 12 13 14 0
d 15 1 2 0
d 16 1 9 0
d 17 7 0
d 18 3 4 11 0
d 19 3 11 0
d 20 1 5 6 7 8 9 11 0
d 21 8 9 13 0
d 22 4 6 8 0
d 23 1 0
d 24 3 12 14 0
d 25 1 2 5 6 12 13 14 0
d 26 10 11 12 0
d 27 5 9 12 13 0
1 -3 -15 -16 -19 0
-2 7 -15 17 -19 -11 0
1 8 -15 -18 -20 -3 4 0
-3 11 15 18 -20 2 0
7 -11 17 -19 20 0
3 4 18 -19 20 1 -5 8 -11 0
3 11 18 19 -22 -8 4 0
6 -8 17 19 22 7 11 3 0
2 6 15 22 -23 -1 0
-7 8 18 20 23 11 1 0
-2 -14 -15 18 -24 -4 11 0
3 -11 -18 23 -24 1 0
-7 -12 20 -23 24 -1 0
2 -12 -15 -17 -25 -7 0
3 5 15 -19 -25 1 0
3 5 -15 19 -25 -2 1 0
3 4 -18 19 -25 14 -13 2 0
-1 12 15 -21 -25 8 9 -13 0
-12 13 15 21 -25 2 1 0
2 3 21 -24 -25 9 13 0
12 14 16 17 25 1 9 7 0
-1 13 15 -18 25 3 -11 0
-6 -13 -16 19 25 -1 -9 11 -3 0
8 -11 17 -20 25 7  13 6 5 0
-7 -11 -19 20 25 12 13 -14 0
2 -4 16 22 25 9 0
-13 -14 16 -23 25 1 0
-10 -12 -15 16 -26 -1 2 0
-10 -14 -15 -25 -26 -1 0
9 -11 -16 18 26 -9 0
-1 8 -20 -23 26 0
5 -12 19 -25 26 3 -11 0
-5 12 -17 25 26 -7 0
-2 -5 18 25 26 -4 10 12 0
-9 11 17 -19 -27 7 0
9 12 15 -20 -27 -2 0
8 12 -20 -22 -27 0
13 14 17 25 -27 7 0
-9 11 18 -26 -27 0
-8 12 -22 -26 -27 0
-5 13 -15 -16 27 -2 1 0
-5 -11 17 -20 27 7 0
-3 -8 -19 -20 27 12 -9 0
1 -5 -16 20 27 0
2 5 22 25 27 4 -8 6 0
5 7 -20 26 27 12 -11 0
-7 10 20 26 27 5 -13 12 0
